
  22   10
  10   10   10   10   10   10   10   10   10   10

   0   0   0   0   0   0   0   0   0   0   0  10 2 3 5 8 10 11 18 19 20 21 
   1   0   0   0   0   0   0   0   0  10   0   4 17 15 14 4 
   3   0   0   0  10   0   0   0   0   0   0   3 15 14 6 
   9   0  10   0   0   0   0   0   0   0   0   1 6 
  10   0   0   0   0   0   0   0   0   0  10   3 16 15 9 
  10   0   0   0   0  10   0   0   0   0   0   2 13 7 
   1   0   0   0   0   0   0   0   0  10   0   1 9 
   8   0   0   0   0   0  10   0   0   0   0   1 9 
   9   0   0   0   0   0   0   0   0   0  10   1 12 
   1   0  10   0   0   0   0   0   0   0   0   1 14 
   6   0   0   0   0   0  10   0   0   0   0   1 13 
   8   0   0   0   0   0   0  10   0   0   0   1 22
   1   0   0   0   0  10   0   0   0   0   0   1 22
  10   0   0   0   0  10   0   0   0   0   0   1 22
   3   0   0   0  10   0   0   0   0   0   0   1 22
   9   0  10   0   0   0   0   0   0   0   0   1 22
   2   0   0   0   0   0  10   0   0   0   0   1 22
   1   0   0   0   0   0  10   0   0   0   0   1 22
   2   0   0  10   0   0   0   0   0   0   0   1 22
   7   0   0   0   0   0   0   0   0  10   0   1 22
   5   0   0   0   0  10   0   0   0   0   0   1 22
   0   0   0   0   0   0   0   0   0   0   0   0 
